[[9, 10, 8, 41, 19, 3, 18, 31, 17, 21, 42, 7, 2, 30, 23, 20, 50, 16, 29, 47, 26, 28, 27, 13], [14, 52, 11, 51, 12, 25, 4, 33, 43, 15, 6, 5, 38, 24, 48, 46, 37, 40, 39, 36, 35, 34, 44, 49, 22, 32, 45]]